# Solution for model mdm
# Objective value = 100
eps 100
lam[0] 0
lam[1] 5400
lam[2] 200
lam[3] 1200
lam[4] 1000
lam[5] 1000
lam[6] 700
lam[7] 3600
lam[8] 200
lam[9] 5400
lam[10] 900
lam[11] 3400
lam[12] 400
lam[13] 1800
lam[14] 600
lam[15] 4400
lam[16] 0
lam[17] 4600
lam[18] 4400
lam[19] 4100
lam[20] 2300
lam[21] 1800
lam[22] 3300
lam[23] 4700
lam[24] 200
lam[25] 4500
lam[26] 2600
lam[27] 200
lam[28] 1900
lam[29] 3800
lam[30] 2200
lam[31] 300
lam[32] 100
lam[33] 5400
lam[34] 3600
lam[35] 4900
lam[36] 0
lam[37] 200
lam[38] 200
lam[39] 0
lam[40] 3700
lam[41] 700
lam[42] 5400
lam[43] 2400
lam[44] 1500
lam[45] 2200
lam[46] 1300
lam[47] 5000
lam[48] 100
lam[49] 2100
lam[50] 3900
lam[51] 1700
lam[52] 2100
lam[53] 1700
lam[54] 100
lam[55] 2400
lam[56] 600
lam[57] 4700
lam[58] 800
lam[59] 0
lam[60] 1800
lam[61] 800
lam[62] 0
lam[63] 0
lam[64] 2500
lam[65] 800
lam[66] 4700
lam[67] 100
lam[68] 1500
lam[69] 400
lam[70] 3800
lam[71] 2600
lam[72] 200
lam[73] 2000
lam[74] 1400
lam[75] 600
lam[76] 4100
lam[77] 1100
lam[78] 1400
lam[79] 1500
lam[80] 1900
lam[81] 400
lam[82] 700
lam[83] 1000
lam[84] 1800
lam[85] 2400
lam[86] 4700
lam[87] 4600
lam[88] 400
lam[89] 1000
lam[90] 600
lam[91] 200
lam[92] 200
lam[93] 1300
lam[94] 3900
lam[95] 3600
lam[96] 4200
lam[97] 1600
lam[98] 2400
lam[99] 200
lam[100] 5000
lam[101] 1000
lam[102] 3500
lam[103] 2200
lam[104] 3500
lam[105] 1000
lam[106] 100
lam[107] 300
lam[108] 5800
lam[109] 500
lam[110] 1900
lam[111] 2600
lam[112] 3600
lam[113] 3300
lam[114] 900
lam[115] 2900
lam[116] 3400
lam[117] 1800
lam[118] 0
lam[119] 2100
lam[120] 1500
lam[121] 0
lam[122] 100
lam[123] 700
lam[124] 3500
lam[125] 2700
lam[126] 5700
lam[127] 400
lam[128] 1700
lam[129] 2500
lam[130] 900
lam[131] 800
lam[132] 100
lam[133] 4500
lam[134] 2500
lam[135] 3600
lam[136] 1900
lam[137] 400
lam[138] 2300
lam[139] 1700
lam[140] 1500
lam[141] 6000
lam[142] 500
lam[143] 1200
lam[144] 2300
lam[145] 1800
lam[146] 1800
lam[147] 1000
lam[148] 2700
lam[149] 2500
lam[150] 200
lam[151] 1100
lam[152] 3400
lam[153] 100
lam[154] 4400
lam[155] 3400
lam[156] 300
lam[157] 0
lam[158] 1700
lam[159] 800
lam[160] 0
lam[161] 200
lam[162] 3800
lam[163] 200
lam[164] 2200
lam[165] 4000
lam[166] 500
lam[167] 2100
lam[168] 1700
lam[169] 1900
lam[170] 1900
lam[171] 1900
lam[172] 100
lam[173] 300
lam[174] 2400
lam[175] 4300
lam[176] 400
lam[177] 100
lam[178] 2700
lam[179] 900
lam[180] 5100
lam[181] 2400
lam[182] 400
lam[183] 4400
lam[184] 2800
lam[185] 2900
lam[186] 800
lam[187] 3200
lam[188] 100
lam[189] 0
lam[190] 3200
lam[191] 3400
lam[192] 1200
lam[193] 300
lam[194] 2000
lam[195] 1900
lam[196] 2200
lam[197] 3400
lam[198] 1600
lam[199] 1900
lam[200] 500
lam[201] 3000
lam[202] 1700
lam[203] 2400
lam[204] 3800
lam[205] 700
lam[206] 900
lam[207] 100
lam[208] 5600
lam[209] 5100
lam[210] 1000
lam[211] 2500
lam[212] 0
lam[213] 200
lam[214] 2200
lam[215] 3100
lam[216] 400
lam[217] 2500
lam[218] 2200
lam[219] 3800
lam[220] 400
lam[221] 3600
lam[222] 0
lam[223] 5100
lam[224] 1400
lam[225] 5300
lam[226] 0
lam[227] 500
lam[228] 4700
lam[229] 1600
lam[230] 3600
lam[231] 5400
lam[232] 100
lam[233] 400
lam[234] 2000
lam[235] 3100
lam[236] 2300
lam[237] 0
lam[238] 1100
lam[239] 0
lam[240] 1100
lam[241] 4000
lam[242] 5300
lam[243] 2100
lam[244] 1200
lam[245] 800
lam[246] 5000
lam[247] 0
lam[248] 700
lam[249] 1600
lam[250] 4100
lam[251] 1200
lam[252] 4300
lam[253] 3600
lam[254] 5000
lam[255] 0
lam[256] 2100
lam[257] 5300
lam[258] 4800
lam[259] 300
lam[260] 100
lam[261] 2600
lam[262] 1700
lam[263] 2100
lam[264] 1700
lam[265] 2400
lam[266] 1900
lam[267] 3400
lam[268] 100
lam[269] 300
lam[270] 1600
lam[271] 1000
lam[272] 0
lam[273] 4900
lam[274] 0
lam[275] 700
lam[276] 2100
lam[277] 900
lam[278] 0
lam[279] 2300
lam[280] 0
lam[281] 0
lam[282] 3500
lam[283] 300
lam[284] 1000
lam[285] 100
lam[286] 2800
lam[287] 3400
lam[288] 1600
lam[289] 2500
lam[290] 4400
lam[291] 1500
lam[292] 2500
lam[293] 4500
lam[294] 1600
lam[295] 2800
lam[296] 900
lam[297] 600
lam[298] 0
lam[299] 3700
lam[300] 4500
lam[301] 4300
lam[302] 3400
lam[303] 2900
lam[304] 1100
lam[305] 800
lam[306] 2900
lam[307] 5300
lam[308] 2600
lam[309] 1900
lam[310] 1900
lam[311] 0
lam[312] 1000
lam[313] 100
lam[314] 700
lam[315] 1300
lam[316] 2800
lam[317] 2000
lam[318] 400
lam[319] 700
lam[320] 900
lam[321] 2400
lam[322] 600
lam[323] 2000
lam[324] 100
lam[325] 0
lam[326] 2500
lam[327] 5100
lam[328] 2200
lam[329] 4100
lam[330] 5500
lam[331] 400
lam[332] 700
lam[333] 900
lam[334] 0
lam[335] 100
lam[336] 5100
lam[337] 600
lam[338] 500
lam[339] 700
lam[340] 3800
lam[341] 1200
lam[342] 100
lam[343] 500
lam[344] 300
lam[345] 3500
lam[346] 3100
lam[347] 2100
lam[348] 1800
lam[349] 800
lam[350] 3200
lam[351] 2100
lam[352] 1800
lam[353] 700
lam[354] 2600
lam[355] 100
lam[356] 3600
lam[357] 200
lam[358] 4200
lam[359] 800
lam[360] 100
lam[361] 0
lam[362] 0
lam[363] 0
lam[364] 100
lam[365] 0
lam[366] 3800
lam[367] 2300
lam[368] 4700
lam[369] 4200
lam[370] 3700
lam[371] 2100
lam[372] 100
lam[373] 700
lam[374] 700
lam[375] 0
lam[376] 1900
lam[377] 1100
lam[378] 3800
lam[379] 2300
lam[380] 0
lam[381] 1600
lam[382] 0
lam[383] 2200
lam[384] 5200
lam[385] 0
lam[386] 3600
lam[387] 2100
lam[388] 2700
lam[389] 1400
lam[390] 1700
lam[391] 1700
lam[392] 4200
lam[393] 2600
lam[394] 5500
lam[395] 4900
lam[396] 2200
lam[397] 100
lam[398] 0
lam[399] 1900
lam[400] 0
lam[401] 1300
lam[402] 3600
lam[403] 0
lam[404] 0
lam[405] 2400
lam[406] 300
lam[407] 1700
lam[408] 2200
lam[409] 100
lam[410] 3500
lam[411] 3500
lam[412] 1400
lam[413] 1000
lam[414] 3500
lam[415] 1000
lam[416] 200
lam[417] 3800
lam[418] 0
lam[419] 2100
lam[420] 5700
lam[421] 4000
lam[422] 200
lam[423] 1600
lam[424] 2300
lam[425] 2000
lam[426] 3000
lam[427] 1200
lam[428] 600
lam[429] 2400
lam[430] 0
lam[431] 1200
lam[432] 100
lam[433] 1500
lam[434] 300
lam[435] 600
lam[436] 3200
lam[437] 2100
lam[438] 5500
lam[439] 500
lam[440] 100
lam[441] 2200
lam[442] 700
lam[443] 3500
lam[444] 2000
lam[445] 3700
lam[446] 0
lam[447] 2800
lam[448] 1400
lam[449] 0
lam[450] 400
lam[451] 2300
lam[452] 100
lam[453] 4300
lam[454] 4800
lam[455] 0
lam[456] 2400
lam[457] 700
lam[458] 400
lam[459] 500
lam[460] 700
lam[461] 3600
lam[462] 200
lam[463] 0
lam[464] 300
lam[465] 3800
lam[466] 4900
lam[467] 4600
lam[468] 1400
lam[469] 4900
lam[470] 5200
lam[471] 4000
lam[472] 100
lam[473] 2700
lam[474] 100
lam[475] 3100
lam[476] 5100
lam[477] 500
lam[478] 2400
lam[479] 0
lam[480] 900
lam[481] 2300
lam[482] 1200
lam[483] 0
lam[484] 5900
lam[485] 600
lam[486] 1100
lam[487] 0
lam[488] 2200
lam[489] 600
lam[490] 500
lam[491] 3400
lam[492] 1200
lam[493] 3500
lam[494] 2400
lam[495] 0
lam[496] 3700
lam[497] 1000
lam[498] 200
lam[499] 6000
lam[500] 2600
lam[501] 2000
lam[502] 3300
lam[503] 0
lam[504] 4600
lam[505] 1400
lam[506] 400
lam[507] 0
lam[508] 1600
lam[509] 3600
lam[510] 0
lam[511] 300
lam[512] 3100
lam[513] 900
lam[514] 0
lam[515] 300
lam[516] 0
lam[517] 3400
lam[518] 2200
lam[519] 900
lam[520] 700
lam[521] 4300
lam[522] 100
lam[523] 1900
lam[524] 3900
lam[525] 300
lam[526] 2500
lam[527] 1000
lam[528] 1800
lam[529] 5100
lam[530] 2400
lam[531] 1500
lam[532] 2000
lam[533] 1100
lam[534] 4000
lam[535] 4200
lam[536] 900
lam[537] 0
lam[538] 100
lam[539] 4000
lam[540] 3200
lam[541] 1800
lam[542] 3600
lam[543] 4100
lam[544] 2400
lam[545] 3400
lam[546] 2100
lam[547] 4500
lam[548] 3600
lam[549] 900
lam[550] 600
lam[551] 1700
lam[552] 2700
lam[553] 1800
lam[554] 1100
lam[555] 5700
lam[556] 3700
lam[557] 5600
lam[558] 600
lam[559] 4700
lam[560] 300
lam[561] 1700
lam[562] 0
lam[563] 2100
lam[564] 3800
lam[565] 1900
lam[566] 0
lam[567] 0
lam[568] 200
lam[569] 100
lam[570] 700
lam[571] 900
lam[572] 1900
lam[573] 600
lam[574] 0
lam[575] 2300
lam[576] 100
lam[577] 2700
lam[578] 2200
lam[579] 2000
lam[580] 2300
lam[581] 4500
lam[582] 200
lam[583] 1100
lam[584] 800
lam[585] 0
lam[586] 2400
lam[587] 1100
lam[588] 2900
lam[589] 2800
lam[590] 5800
lam[591] 1200
lam[592] 200
lam[593] 2000
lam[594] 500
lam[595] 100
lam[596] 5200
lam[597] 4100
lam[598] 3000
lam[599] 4000
lam[600] 200
lam[601] 1400
lam[602] 100
lam[603] 3000
lam[604] 0
lam[605] 5200
lam[606] 0
lam[607] 600
lam[608] 100
lam[609] 4700
lam[610] 3900
lam[611] 100
lam[612] 1500
lam[613] 0
lam[614] 100
lam[615] 600
lam[616] 0
lam[617] 2500
lam[618] 2600
lam[619] 1200
lam[620] 2300
lam[621] 1300
lam[622] 100
lam[623] 300
lam[624] 3500
lam[625] 800
lam[626] 1700
lam[627] 3700
lam[628] 300
lam[629] 3700
lam[630] 4500
lam[631] 5900
lam[632] 3000
lam[633] 3300
lam[634] 2300
lam[635] 4400
lam[636] 200
lam[637] 1400
lam[638] 400
lam[639] 1300
lam[640] 4700
lam[641] 600
lam[642] 5000
lam[643] 1200
lam[644] 2000
lam[645] 1600
lam[646] 3400
lam[647] 1500
lam[648] 4900
lam[649] 1600
lam[650] 5200
lam[651] 4900
lam[652] 4200
lam[653] 4400
lam[654] 3200
lam[655] 2000
lam[656] 3900
lam[657] 2200
lam[658] 0
lam[659] 400
lam[660] 2700
lam[661] 5200
lam[662] 1700
lam[663] 1800
lam[664] 2400
lam[665] 0
lam[666] 1600
lam[667] 3500
lam[668] 100
lam[669] 3000
lam[670] 3300
lam[671] 0
lam[672] 2200
lam[673] 100
lam[674] 3000
lam[675] 900
lam[676] 3900
lam[677] 0
lam[678] 1200
lam[679] 0
lam[680] 0
lam[681] 4300
lam[682] 3300
lam[683] 3000
lam[684] 3700
lam[685] 700
lam[686] 2500
lam[687] 700
lam[688] 2000
lam[689] 200
lam[690] 5000
lam[691] 600
lam[692] 3500
lam[693] 3300
lam[694] 1500
lam[695] 200
lam[696] 100
lam[697] 2900
lam[698] 1100
lam[699] 200
lam[700] 4000
lam[701] 0
lam[702] 3400
lam[703] 100
lam[704] 100
lam[705] 3900
lam[706] 2800
lam[707] 100
lam[708] 3300
lam[709] 4800
lam[710] 400
lam[711] 5100
lam[712] 500
lam[713] 500
lam[714] 1000
lam[715] 1300
lam[716] 500
lam[717] 200
lam[718] 3200
lam[719] 2600
lam[720] 2200
lam[721] 4400
lam[722] 2500
lam[723] 2400
lam[724] 1700
lam[725] 1300
lam[726] 500
lam[727] 700
lam[728] 0
lam[729] 0
lam[730] 100
lam[731] 1300
lam[732] 600
lam[733] 1300
lam[734] 1700
lam[735] 1400
lam[736] 1200
lam[737] 800
lam[738] 0
lam[739] 2500
lam[740] 400
lam[741] 100
lam[742] 0
lam[743] 700
lam[744] 0
lam[745] 4300
lam[746] 1100
lam[747] 3300
lam[748] 3400
lam[749] 0
lam[750] 300
lam[751] 2000
lam[752] 0
lam[753] 5300
lam[754] 0
lam[755] 1000
lam[756] 2700
lam[757] 600
lam[758] 1900
lam[759] 4200
lam[760] 0
lam[761] 900
lam[762] 300
lam[763] 200
lam[764] 500
lam[765] 0
lam[766] 500
lam[767] 400
lam[768] 0
lam[769] 2200
lam[770] 500
lam[771] 600
lam[772] 600
lam[773] 100
lam[774] 2200
lam[775] 100
lam[776] 2000
lam[777] 4800
lam[778] 2300
lam[779] 2100
lam[780] 1500
lam[781] 2000
lam[782] 700
lam[783] 5200
lam[784] 5500
lam[785] 1300
lam[786] 900
lam[787] 1700
lam[788] 1800
lam[789] 4700
lam[790] 800
lam[791] 1300
lam[792] 0
lam[793] 1200
lam[794] 5100
lam[795] 0
lam[796] 5200
lam[797] 1800
lam[798] 5000
lam[799] 3900
lam[800] 3300
lam[801] 2300
lam[802] 4100
lam[803] 2200
lam[804] 1500
lam[805] 2600
lam[806] 2000
lam[807] 3700
lam[808] 1600
lam[809] 1300
lam[810] 100
lam[811] 3400
lam[812] 2800
lam[813] 500
lam[814] 3100
lam[815] 900
lam[816] 2600
lam[817] 700
lam[818] 500
lam[819] 700
lam[820] 200
lam[821] 600
lam[822] 2100
lam[823] 0
lam[824] 1100
lam[825] 1000
lam[826] 400
lam[827] 0
lam[828] 2000
lam[829] 4400
lam[830] 0
lam[831] 2100
lam[832] 0
lam[833] 3800
lam[834] 1200
lam[835] 0
lam[836] 3100
lam[837] 2600
lam[838] 2100
lam[839] 2400
lam[840] 3300
lam[841] 2700
lam[842] 600
lam[843] 4600
lam[844] 2300
lam[845] 100
lam[846] 2700
lam[847] 3800
lam[848] 4500
lam[849] 100
lam[850] 1200
lam[851] 4400
lam[852] 2800
lam[853] 200
lam[854] 1500
lam[855] 2300
lam[856] 1900
lam[857] 2800
lam[858] 1800
lam[859] 300
lam[860] 600
lam[861] 2700
lam[862] 0
lam[863] 2600
lam[864] 5300
lam[865] 1800
lam[866] 1200
lam[867] 3900
lam[868] 0
lam[869] 400
lam[870] 0
lam[871] 3900
lam[872] 4300
lam[873] 0
lam[874] 200
lam[875] 5500
lam[876] 4200
lam[877] 2300
lam[878] 100
lam[879] 4600
lam[880] 4500
lam[881] 2600
lam[882] 3700
lam[883] 4100
lam[884] 600
lam[885] 100
lam[886] 3100
lam[887] 4200
lam[888] 2100
lam[889] 2500
lam[890] 1100
lam[891] 800
lam[892] 3500
lam[893] 4000
lam[894] 500
lam[895] 4500
lam[896] 2100
lam[897] 3200
lam[898] 2500
lam[899] 4600
lam[900] 2800
lam[901] 0
lam[902] 100
lam[903] 1100
lam[904] 300
lam[905] 4600
lam[906] 100
lam[907] 100
lam[908] 1500
lam[909] 1400
lam[910] 200
lam[911] 900
lam[912] 2700
lam[913] 4800
lam[914] 400
lam[915] 4100
lam[916] 1600
lam[917] 3000
lam[918] 2900
lam[919] 100
lam[920] 3900
lam[921] 2300
lam[922] 400
lam[923] 1700
lam[924] 1200
lam[925] 600
lam[926] 2600
lam[927] 3500
lam[928] 700
lam[929] 300
lam[930] 1000
lam[931] 4600
lam[932] 1600
lam[933] 3500
lam[934] 2900
lam[935] 0
lam[936] 2000
lam[937] 2000
lam[938] 1400
lam[939] 2800
lam[940] 200
lam[941] 1000
lam[942] 300
lam[943] 4600
lam[944] 1700
lam[945] 0
lam[946] 1300
lam[947] 300
lam[948] 3900
lam[949] 200
lam[950] 500
lam[951] 1300
lam[952] 1000
lam[953] 1300
lam[954] 1200
lam[955] 4000
lam[956] 1500
lam[957] 1600
lam[958] 3400
lam[959] 3400
lam[960] 100
lam[961] 100
lam[962] 2800
lam[963] 1900
lam[964] 2100
lam[965] 200
lam[966] 700
lam[967] 800
lam[968] 1700
lam[969] 3000
lam[970] 1800
lam[971] 3200
lam[972] 2100
lam[973] 5600
lam[974] 3400
lam[975] 1500
lam[976] 1700
lam[977] 300
lam[978] 1100
lam[979] 3700
lam[980] 600
lam[981] 1400
lam[982] 1100
lam[983] 2400
lam[984] 3900
lam[985] 3100
lam[986] 2300
lam[987] 2700
lam[988] 100
lam[989] 800
lam[990] 1000
lam[991] 500
lam[992] 800
lam[993] 4200
lam[994] 2200
lam[995] 1400
lam[996] 500
lam[997] 3700
lam[998] 100
lam[999] 100
